letting initialStacks = [38, 3, 22, 31, 10, 9, 1, 14, 30, 34, 44, 18, 19, 49, 20, 16, 21, 47, 13, 29, 17, 15, 33, 26, 4, 46, 35, 36, 27, 50, 12, 2, 8, 42, 37, 6, 32, 23, 39, 51, 43, 40, 25, 45, 11, 24, 28, 5, 41, 7, 48]
